Version identifier: 20.1.0.0 | 2020-11-10 | 9bedb6d68
Tried aggregator 2 times.
MIP Presolve eliminated 968 rows and 519 columns.
MIP Presolve modified 2414 coefficients.
Aggregator did 119 substitutions.
Reduced MIP has 1427 rows, 1132 columns, and 4714 nonzeros.
Reduced MIP has 250 binaries, 882 generals, 0 SOSs, and 0 indicators.
Presolve time = 0.01 sec. (5.66 ticks)
Found incumbent of value 2730.000000 after 0.03 sec. (11.62 ticks)
Probing fixed 30 vars, tightened 232 bounds.
Probing time = 0.00 sec. (0.96 ticks)
Tried aggregator 2 times.
Detecting symmetries...
MIP Presolve eliminated 615 rows and 32 columns.
MIP Presolve modified 117 coefficients.
Aggregator did 2 substitutions.
Reduced MIP has 810 rows, 1098 columns, and 2714 nonzeros.
Reduced MIP has 290 binaries, 808 generals, 0 SOSs, and 0 indicators.
Presolve time = 0.01 sec. (3.64 ticks)
Probing time = 0.00 sec. (0.27 ticks)
Clique table members: 95.
MIP emphasis: balance optimality and feasibility.
MIP search method: dynamic search.
Parallel mode: deterministic, using up to 24 threads.
Root relaxation solution time = 0.01 sec. (2.70 ticks)

        Nodes                                         Cuts/
   Node  Left     Objective  IInf  Best Integer    Best Bound    ItCnt     Gap

*     0+    0                         2730.0000        0.0000           100.00%
*     0+    0                           74.0000        0.0000           100.00%
      0     0        0.0000    34       74.0000        0.0000      312  100.00%
      0     0        0.0000    66       74.0000      Cuts: 75      379  100.00%
      0     0        0.3579   223       74.0000      Cuts: 80      499   99.52%
      0     0        1.1034   138       74.0000      Cuts: 70      568   98.51%
      0     0        1.1765   258       74.0000      Cuts: 47      629   98.41%
      0     0        1.1765   147       74.0000      Cuts: 52      664   98.41%
      0     0        1.1765   286       74.0000      Cuts: 34      714   98.41%
*     0+    0                           29.0000        1.1765            95.94%
*     0+    0                           18.0000        1.1765            93.46%
      0     0        cutoff             18.0000       18.0000      714    0.00%
Elapsed time = 0.89 sec. (103.48 ticks, tree = 0.01 MB, solutions = 4)

Implied bound cuts applied:  53
Flow cuts applied:  10
Mixed integer rounding cuts applied:  12
Zero-half cuts applied:  27
Lift and project cuts applied:  5
Gomory fractional cuts applied:  6

Root node processing (before b&c):
  Real time             =    0.89 sec. (103.58 ticks)
Parallel b&c, 24 threads:
  Real time             =    0.00 sec. (0.00 ticks)
  Sync time (average)   =    0.00 sec.
  Wait time (average)   =    0.00 sec.
                          ------------
Total (root+branch&cut) =    0.89 sec. (103.58 ticks)

Solution status = Optimal
Solution LB = 18
Solution UB = 18
Runtime = 0.8991 seconds
	Command being timed: "/home/min/git_repos/CS598MEBProject/CNT-ILP/build/cnt -s 2 ./output/k8_n15/simC_c1_k8_n15_u3_s1_del02.input-left.cnp"
	User time (seconds): 13.56
	System time (seconds): 0.07
	Percent of CPU this job got: 1458%
	Elapsed (wall clock) time (h:mm:ss or m:ss): 0:00.93
	Average shared text size (kbytes): 0
	Average unshared data size (kbytes): 0
	Average stack size (kbytes): 0
	Average total size (kbytes): 0
	Maximum resident set size (kbytes): 101300
	Average resident set size (kbytes): 0
	Major (requiring I/O) page faults: 0
	Minor (reclaiming a frame) page faults: 22395
	Voluntary context switches: 4873
	Involuntary context switches: 1765
	Swaps: 0
	File system inputs: 0
	File system outputs: 24
	Socket messages sent: 0
	Socket messages received: 0
	Signals delivered: 0
	Page size (bytes): 4096
	Exit status: 0
